5 5
3 85 1 38 4 58 0 70 2 29
1 56 3 11 4 48 2 86 0 60
4 51 1 39 2 6 3 30 0 89
0 1 4 86 1 9 2 45 3 8
4 34 2 80 3 83 0 8 1 12
-1
0 1 2 4 5
0 2 4 5
0 2 5
0 1 3 4 5
0 1 2 3 5
-2
103 194 311 304
70 307 354
106 225
1 141 208 160
45 150 272 282

371 8
15 14 3 9 23
5 11 1 17 24
12 21 8 18 4
0 6 13 22 19
10 20 7 2 16
